language ESSENCE' 1.0
$ loaded file: carseqdata/csplib-instance-56
letting numcars=200
letting numclasses=24
letting numoptions=5
letting optMax=[1, 2, 1, 2, 1]
letting windowSize=[2, 3, 3, 5, 5]
letting numberPerClass=[40, 3, 11, 2, 7, 4, 2, 7, 19, 2, 2, 7, 14, 4, 11, 21, 9, 6, 5, 3, 3, 1, 14, 3]
letting optionsRequired=[[0, 1, 0, 0, 0], [0, 0, 0, 1, 1], [0, 0, 0, 0, 1], [1, 1, 1, 1, 0], [0, 1, 0, 0, 1], [0, 1, 1, 1, 0], [1, 0, 1, 0, 1], [1, 1, 0, 1, 0], [0, 0, 0, 1, 0], [1, 1, 0, 1, 1], [0, 0, 1, 1, 1], [1, 0, 1, 0, 0], [0, 0, 1, 0, 0], [1, 1, 0, 0, 1], [1, 1, 0, 0, 0], [1, 0, 0, 0, 0], [0, 1, 1, 0, 0], [1, 1, 1, 0, 0], [1, 0, 0, 1, 0], [0, 0, 1, 1, 0], [1, 0, 1, 1, 0], [0, 1, 0, 1, 1], [0, 1, 0, 0, 0], [1, 0, 0, 0, 1]]
